CPXPARAM_Read_DataCheck                          1
Found incumbent of value 0.000000 after 0.00 sec. (0.26 ticks)
Tried aggregator 1 time.
MIP Presolve modified 1 coefficients.
Reduced MIP has 1033 rows, 10010 columns, and 50034 nonzeros.
Reduced MIP has 10010 binaries, 0 generals, 0 SOSs, and 0 indicators.
Presolve time = 0.03 sec. (19.58 ticks)
Tried aggregator 1 time.
Reduced MIP has 1033 rows, 10010 columns, and 50034 nonzeros.
Reduced MIP has 10010 binaries, 0 generals, 0 SOSs, and 0 indicators.
Presolve time = 0.03 sec. (23.35 ticks)
Probing time = 0.02 sec. (7.24 ticks)
Clique table members: 33105.
MIP emphasis: balance optimality and feasibility.
MIP search method: dynamic search.
Parallel mode: deterministic, using up to 4 threads.
Root relaxation solution time = 0.11 sec. (105.68 ticks)

        Nodes                                         Cuts/
   Node  Left     Objective  IInf  Best Integer    Best Bound    ItCnt     Gap

*     0+    0                            0.0000    61513.0000              --- 
*     0+    0                         4771.0000    61513.0000              --- 
*     0+    0                         5398.0000    61513.0000              --- 
*     0+    0                         5707.0000    61513.0000           977.85%
      0     0    17689.2270    10     5707.0000    17689.2270     1655  209.96%
*     0+    0                        12574.0000    17689.2270            40.68%
      0     0    15647.6558   434    12574.0000     Cuts: 358     2717   24.44%
*     0+    0                        12798.0000    15647.6558            22.27%
      0     0    14906.7761   877    12798.0000     Cuts: 358     3577   16.48%
*     0+    0                        12805.0000    14906.7761            16.41%
      0     0    14193.5812  1306    12805.0000     Cuts: 358     4573   10.84%
      0     0        cutoff          12805.0000    12805.0000     5696    0.00%
Elapsed time = 4.83 sec. (2368.56 ticks, tree = 0.01 MB, solutions = 7)

Clique cuts applied:  1080
Cover cuts applied:  6
Implied bound cuts applied:  10
Mixed integer rounding cuts applied:  29
Zero-half cuts applied:  7

Root node processing (before b&c):
  Real time             =    4.83 sec. (2369.59 ticks)
Parallel b&c, 4 threads:
  Real time             =    0.00 sec. (0.00 ticks)
  Sync time (average)   =    0.00 sec.
  Wait time (average)   =    0.00 sec.
                          ------------
Total (root+branch&cut) =    4.83 sec. (2369.59 ticks)
